c description: Random 3-CNF over 6 variables and 3 clauses
c generator: CNFgen (0.9.2)
c copyright: (C) 2012-2022 Massimo Lauria <massimo.lauria@uniroma1.it>
c url: https://massimolauria.net/cnfgen
c command line: cnfgen randkcnf 3 6 3
c
p cnf 6 3
-1 -2 3 0
-3 4 -5 0
-2 -4 -6 0
